c generated by sgen
p cnf 65 140
-2 -3 -4 0
-1 -3 -4 0
-1 -2 -4 0
-1 -2 -3 0
-6 -7 -8 0
-5 -7 -8 0
-5 -6 -8 0
-5 -6 -7 0
-10 -11 -12 0
-9 -11 -12 0
-9 -10 -12 0
-9 -10 -11 0
-14 -15 -16 0
-13 -15 -16 0
-13 -14 -16 0
-13 -14 -15 0
-18 -19 -20 0
-17 -19 -20 0
-17 -18 -20 0
-17 -18 -19 0
-22 -23 -24 0
-21 -23 -24 0
-21 -22 -24 0
-21 -22 -23 0
-26 -27 -28 0
-25 -27 -28 0
-25 -26 -28 0
-25 -26 -27 0
-30 -31 -32 0
-29 -31 -32 0
-29 -30 -32 0
-29 -30 -31 0
-34 -35 -36 0
-33 -35 -36 0
-33 -34 -36 0
-33 -34 -35 0
-38 -39 -40 0
-37 -39 -40 0
-37 -38 -40 0
-37 -38 -39 0
-42 -43 -44 0
-41 -43 -44 0
-41 -42 -44 0
-41 -42 -43 0
-46 -47 -48 0
-45 -47 -48 0
-45 -46 -48 0
-45 -46 -47 0
-50 -51 -52 0
-49 -51 -52 0
-49 -50 -52 0
-49 -50 -51 0
-54 -55 -56 0
-53 -55 -56 0
-53 -54 -56 0
-53 -54 -55 0
-58 -59 -60 0
-57 -59 -60 0
-57 -58 -60 0
-57 -58 -59 0
-61 -62 -63 0
-61 -62 -64 0
-61 -62 -65 0
-61 -63 -64 0
-61 -63 -65 0
-61 -64 -65 0
-62 -63 -64 0
-62 -63 -65 0
-62 -64 -65 0
-63 -64 -65 0
25 34 31 0
21 34 31 0
21 25 31 0
21 25 34 0
60 27 6 0
11 27 6 0
11 60 6 0
11 60 27 0
55 24 65 0
9 24 65 0
9 55 65 0
9 55 24 0
28 33 46 0
19 33 46 0
19 28 46 0
19 28 33 0
4 14 10 0
35 14 10 0
35 4 10 0
35 4 14 0
41 38 26 0
63 38 26 0
63 41 26 0
63 41 38 0
52 12 39 0
30 12 39 0
30 52 39 0
30 52 12 0
59 47 44 0
16 47 44 0
16 59 44 0
16 59 47 0
49 1 45 0
23 1 45 0
23 49 45 0
23 49 1 0
57 40 53 0
36 40 53 0
36 57 53 0
36 57 40 0
32 2 42 0
56 2 42 0
56 32 42 0
56 32 2 0
7 29 62 0
48 29 62 0
48 7 62 0
48 7 29 0
18 8 51 0
43 8 51 0
43 18 51 0
43 18 8 0
15 54 50 0
64 54 50 0
64 15 50 0
64 15 54 0
20 3 58 0
61 3 58 0
61 20 58 0
61 20 3 0
37 5 22 0
37 5 13 0
37 5 17 0
37 22 13 0
37 22 17 0
37 13 17 0
5 22 13 0
5 22 17 0
5 13 17 0
22 13 17 0
